# Objective value = 38.0
xobj 38.0
x0_r1 -5.950101522600448e-16
x1_r1 -0.0
x2_r1 -9.8879238130678e-17
x3_r1 -9.84455572616838e-17
y0_r1 -0.0
y1_r1 -0.0
y2_r1 -5.984795992119984e-16
y3_r1 -0.0
SH0_r1 -1.0018028073766061e-16
SL0_r1 -0.0
x4_r1 0.0
x5_r1 -1.394717674685353e-15
x6_r1 0.0
x7_r1 0.0
y4_r1 1.394717674685353e-15
y5_r1 -1.880440247958859e-15
y6_r1 -0.0
y7_r1 7.632783294297951e-17
SH1_r1 -0.0
SL1_r1 -0.0
x8_r1 1.3530843112619095e-16
x9_r1 -0.0
x10_r1 -2.6020852139652106e-16
x11_r1 -2.6020852139652106e-16
y8_r1 1.1882855810441129e-16
y9_r1 -2.192690473634684e-15
y10_r1 -9.08995101411847e-16
y11_r1 -8.326672684688674e-17
SH2_r1 -2.6020852139652106e-16
SL2_r1 -0.0
x12_r1 -3.372302437298913e-15
x13_r1 -2.041769531224702e-15
x14_r1 -4.196296088387896e-15
x15_r1 -2.014013955609073e-15
y12_r1 -1.7061005386231898e-15
y13_r1 -1.672273430841642e-15
y14_r1 -0.0
y15_r1 -0.0
SH3_r1 -2.014013955609073e-15
SL3_r1 -0.0
x16_r1 -0.0
x17_r1 1.734723475976807e-18
x18_r1 -0.0
x19_r1 -0.0
y16_r1 0.0
y17_r1 0.0
y18_r1 -1.734723475976807e-18
y19_r1 -3.469446951953614e-18
SH4_r1 -0.0
SL4_r1 -0.0
x20_r1 -0.0
x21_r1 -0.0
x22_r1 0.0
x23_r1 -0.0
y20_r1 0.0
y21_r1 0.0
y22_r1 -0.0
y23_r1 -0.0
SH5_r1 -0.0
SL5_r1 -0.0
x24_r1 0.0
x25_r1 0.0
x26_r1 1.0408340855860843e-17
x27_r1 0.0
y24_r1 0.0
y25_r1 0.0
y26_r1 3.469446951953614e-18
y27_r1 -0.0
SH6_r1 -0.0
SL6_r1 -0.0
x28_r1 -0.0
x29_r1 -0.0
x30_r1 -1.1102230246251565e-16
x31_r1 -0.0
y28_r1 0.0
y29_r1 0.0
y30_r1 -0.0
y31_r1 -0.0
SH7_r1 0.0
SL7_r1 -0.0
x32_r1 3.8337388819087437e-16
x33_r1 3.219646771412954e-15
x34_r1 6.869504964868156e-16
x35_r1 3.969047313034935e-15
y32_r1 7.771561172376096e-16
y33_r1 -0.0
y34_r1 4.822531263215524e-16
y35_r1 -0.0
SH8_r1 0.0
SL8_r1 -0.0
x36_r1 -0.0
x37_r1 -0.0
x38_r1 -0.0
x39_r1 -6.765421556309548e-17
y36_r1 1.0755285551056204e-16
y37_r1 -4.4967285103836296e-17
y38_r1 5.833007687972014e-17
y39_r1 2.7755575615628914e-17
SH9_r1 2.7755575615628914e-17
SL9_r1 -0.0
x40_r1 -0.0
x41_r1 -0.0
x42_r1 -0.0
x43_r1 -0.0
y40_r1 -0.0
y41_r1 -0.0
y42_r1 -0.0
y43_r1 -0.0
SH10_r1 -0.0
SL10_r1 -0.0
x44_r1 -0.0
x45_r1 -0.0
x46_r1 -3.2612801348363973e-16
x47_r1 -0.0
y44_r1 -2.7131075164277263e-15
y45_r1 -4.458239333260394e-16
y46_r1 -2.896988204881268e-16
y47_r1 -2.6194324487249787e-16
SH11_r1 -2.6194324487249787e-16
SL11_r1 -0.0
x48_r1 -0.0
x49_r1 -0.0
x50_r1 -4.9873299934333204e-17
x51_r1 -4.9873299934333204e-17
y48_r1 -0.0
y49_r1 -0.0
y50_r1 -0.0
y51_r1 -4.9873299934333204e-17
SH12_r1 -4.9873299934333204e-17
SL12_r1 -0.0
x52_r1 -0.0
x53_r1 1.0419182877585698e-16
x54_r1 -3.469446951953614e-16
x55_r1 -3.5214886562329184e-16
y52_r1 -0.0
y53_r1 -0.0
y54_r1 0.0
y55_r1 -2.949029909160572e-16
SH13_r1 -2.393918396847994e-16
SL13_r1 -0.0
x56_r1 -0.0
x57_r1 -0.0
x58_r1 -1.0885389811754465e-16
x59_r1 2.6194324487249787e-16
y56_r1 9.540979117872439e-18
y57_r1 5.30825383648903e-16
y58_r1 8.951173136040325e-16
y59_r1 2.5500435096859064e-16
SH14_r1 2.5500435096859064e-16
SL14_r1 -0.0
x60_r1 1.0
x61_r1 1.0
x62_r1 1.0
x63_r1 0.9999999999999999
y60_r1 -0.0
y61_r1 -0.0
y62_r1 0.0
y63_r1 1.0
SH15_r1 0.9999999999999999
SL15_r1 -0.0
y0_r2 -0.0
y1_r2 -1.1449174941446927e-16
y2_r2 -0.0
y3_r2 -9.853229343548264e-16
SH0_r2 -9.298117831235686e-16
SL0_r2 -0.0
y4_r2 -0.0
y5_r2 -1.1449174941446927e-16
y6_r2 0.0
y7_r2 2.3418766925686896e-17
SH1_r2 2.3418766925686896e-17
SL1_r2 3.122502256758253e-17
y8_r2 -0.0
y9_r2 -1.1449174941446927e-16
y10_r2 2.710505431213761e-19
y11_r2 9.22005527481673e-16
SH2_r2 1.491862189340054e-16
SL2_r2 8.743006318923108e-16
y12_r2 -0.0
y13_r2 -1.1449174941446927e-16
y14_r2 0.0
y15_r2 -0.0
SH3_r2 -3.2526065174565133e-18
SL3_r2 -0.0
y16_r2 -0.0
y17_r2 -1.0234868508263162e-16
y18_r2 2.4424906541753444e-15
y19_r2 0.0
SH4_r2 -0.0
SL4_r2 -0.0
y20_r2 -0.0
y21_r2 -0.0
y22_r2 -0.0
y23_r2 0.0
SH5_r2 -0.0
SL5_r2 -0.0
y24_r2 -0.0
y25_r2 -0.0
y26_r2 4.2500725161431774e-16
y27_r2 8.066464163292153e-17
SH6_r2 8.760353553682876e-17
SL6_r2 -0.0
y28_r2 -0.0
y29_r2 0.0
y30_r2 -0.0
y31_r2 -0.0
SH7_r2 0.0
SL7_r2 -0.0
y32_r2 -0.0
y33_r2 -0.0
y34_r2 0.0
y35_r2 0.0
SH8_r2 -0.0
SL8_r2 -0.0
y36_r2 -0.0
y37_r2 -3.729655473350135e-17
y38_r2 -3.469446951953614e-18
y39_r2 -0.0
SH9_r2 -0.0
SL9_r2 -0.0
y40_r2 -0.0
y41_r2 3.729655473350135e-17
y42_r2 9.679756995950584e-16
y43_r2 0.0
SH10_r2 -0.0
SL10_r2 1.4354836763708079e-16
y44_r2 -0.0
y45_r2 -9.020562075079397e-17
y46_r2 0.0
y47_r2 1.2212453270876722e-15
SH11_r2 -0.0
SL11_r2 1.5612511283791264e-15
y48_r2 -0.0
y49_r2 -3.642919299551295e-17
y50_r2 2.0816681711721685e-16
y51_r2 -0.0
SH12_r2 0.0
SL12_r2 -0.0
y52_r2 -3.642919299551295e-17
y53_r2 -7.233796894823286e-16
y54_r2 -0.0
y55_r2 7.19910242530375e-17
SH13_r2 7.19910242530375e-17
SL13_r2 -0.0
y56_r2 -0.0
y57_r2 2.220446049250313e-16
y58_r2 -0.0
y59_r2 -5.551115123125783e-17
SH14_r2 -0.0
SL14_r2 -0.0
y60_r2 1.0000000000000004
y61_r2 2.203098814490545e-16
y62_r2 -3.226585665316861e-16
y63_r2 0.9999999999999999
SH15_r2 1.0
SL15_r2 1.3692118185776314e-16
y0_r3 -0.0
y1_r3 -0.0
y2_r3 -0.0
y3_r3 -0.0
SH0_r3 -0.0
SL0_r3 -0.0
y4_r3 -0.0
y5_r3 -0.0
y6_r3 -0.0
y7_r3 -0.0
SH1_r3 -0.0
SL1_r3 -0.0
y8_r3 -0.0
y9_r3 -0.0
y10_r3 -0.0
y11_r3 -0.0
SH2_r3 -0.0
SL2_r3 -0.0
y12_r3 1.0
y13_r3 3.642919299551295e-17
y14_r3 0.0
y15_r3 1.0
SH3_r3 1.0
SL3_r3 -7.28583859910259e-17
y16_r3 -6.938893903907228e-16
y17_r3 1.8735013540549517e-16
y18_r3 -0.0
y19_r3 -0.0
SH4_r3 -1.1449174941446927e-16
SL4_r3 -0.0
y20_r3 -2.7321894746634712e-17
y21_r3 -2.220446049250313e-16
y22_r3 -3.0791341698588326e-17
y23_r3 -0.0
SH5_r3 -3.0791341698588326e-17
SL5_r3 -3.0791341698588326e-17
y24_r3 -0.0
y25_r3 1.3877787807814457e-16
y26_r3 -0.0
y27_r3 -0.0
SH6_r3 -0.0
SL6_r3 -0.0
y28_r3 -1.5126788710517758e-15
y29_r3 1.5959455978986625e-16
y30_r3 -6.830473686658678e-18
y31_r3 -0.0
SH7_r3 2.203098814490545e-16
SL7_r3 -0.0
y32_r3 0.0
y33_r3 -0.0
y34_r3 -2.710505431213761e-19
y35_r3 -0.0
SH8_r3 -0.0
SL8_r3 0.0
y36_r3 4.121702978920894e-15
y37_r3 3.608224830031759e-16
y38_r3 1.842276331487369e-15
y39_r3 -0.0
SH9_r3 1.1345091532888318e-15
SL9_r3 -0.0
y40_r3 -1.0130785099704553e-15
y41_r3 0.0
y42_r3 -9.614704865601453e-16
y43_r3 -0.0
SH10_r3 -0.0
SL10_r3 -0.0
y44_r3 1.6479873021779667e-16
y45_r3 -6.106226635438361e-16
y46_r3 3.469446951953614e-17
y47_r3 -0.0
SH11_r3 -3.5041414214731503e-16
SL11_r3 -0.0
y48_r3 3.774758283725532e-15
y49_r3 -1.3600232051658168e-15
y50_r3 -2.9698465908722937e-15
y51_r3 -2.1094237467877974e-15
SH12_r3 -2.0816681711721685e-15
SL12_r3 -0.0
y52_r3 7.91033905045424e-16
y53_r3 -8.326672684688674e-17
y54_r3 3.469446951953614e-16
y55_r3 1.096345236817342e-15
SH13_r3 1.1102230246251565e-15
SL13_r3 -0.0
y56_r3 1.2212453270876722e-15
y57_r3 6.938893903907228e-18
y58_r3 -1.2212453270876722e-15
y59_r3 -0.0
SH14_r3 0.0
SL14_r3 -0.0
y60_r3 1.0
y61_r3 -0.0
y62_r3 -1.1102230246251565e-16
y63_r3 1.0000000000000002
SH15_r3 1.0000000000000002
SL15_r3 -0.0
y0_r4 0.999999999999994
y1_r4 5.218048215738236e-15
y2_r4 0.0
y3_r4 0.9999999999999987
SH0_r4 1.0
SL0_r4 -0.0
y4_r4 -3.3584246494910985e-15
y5_r4 7.91033905045424e-16
y6_r4 3.247402347028583e-15
y7_r4 2.220446049250313e-16
SH1_r4 3.247402347028583e-15
SL1_r4 -0.0
y8_r4 3.4555691641457997e-15
y9_r4 -0.0
y10_r4 -3.1363800445660672e-15
y11_r4 1.0178489995293916e-15
SH2_r4 1.0213184464813452e-15
SL2_r4 -0.0
y12_r4 0.9999999999999944
y13_r4 -1.582067810090848e-15
y14_r4 2.0816681711721685e-17
y15_r4 1.0
SH3_r4 0.9999999999999998
SL3_r4 -0.0
y16_r4 -0.0
y17_r4 0.0
y18_r4 -1.8431436932253575e-18
y19_r4 -0.0
SH4_r4 -1.8431436932253575e-18
SL4_r4 -0.0
y20_r4 -0.0
y21_r4 -1.942890293094024e-16
y22_r4 -5.204170427930421e-18
y23_r4 -0.0
SH5_r4 -2.2551405187698492e-17
SL5_r4 -6.938893903907228e-18
y24_r4 -0.0
y25_r4 -4.163336342344337e-16
y26_r4 -0.0
y27_r4 0.0
SH6_r4 -0.0
SL6_r4 2.654126918244515e-16
y28_r4 -0.0
y29_r4 1.1657341758564144e-15
y30_r4 0.0
y31_r4 -0.0
SH7_r4 -5.689893001203927e-16
SL7_r4 -0.0
y32_r4 -0.0
y33_r4 6.8833827526759706e-15
y34_r4 0.0
y35_r4 5.551115123125783e-16
SH8_r4 -0.0
SL8_r4 -0.0
y36_r4 -0.0
y37_r4 -0.0
y38_r4 -0.0
y39_r4 -0.0
SH9_r4 -7.697835424647081e-18
SL9_r4 -0.0
y40_r4 1.4502288259166107e-15
y41_r4 -1.6167622796103842e-15
y42_r4 -0.0
y43_r4 -0.0
SH10_r4 -0.0
SL10_r4 -0.0
y44_r4 -0.0
y45_r4 -8.604228440844963e-16
y46_r4 0.0
y47_r4 1.7208456881689926e-15
SH11_r4 -1.249000902703301e-16
SL11_r4 -0.0
y48_r4 1.0
y49_r4 1.096345236817342e-15
y50_r4 -0.0
y51_r4 1.0
SH12_r4 1.0
SL12_r4 -0.0
y52_r4 -0.0
y53_r4 -0.0
y54_r4 -0.0
y55_r4 -0.0
SH13_r4 -0.0
SL13_r4 -0.0
y56_r4 -0.0
y57_r4 -0.0
y58_r4 -0.0
y59_r4 -0.0
SH14_r4 -0.0
SL14_r4 -0.0
y60_r4 1.0000000000000004
y61_r4 1.0824674490095276e-15
y62_r4 0.0
y63_r4 0.9999999999999994
SH15_r4 1.0
SL15_r4 1.2212453270876722e-15
y0_r5 -0.0
y1_r5 1.0
y2_r5 -0.0
y3_r5 -0.0
SH0_r5 0.9999999999999944
SL0_r5 -0.0
y4_r5 -0.0
y5_r5 -0.0
y6_r5 -0.0
y7_r5 -0.0
SH1_r5 -0.0
SL1_r5 -0.0
y8_r5 -0.0
y9_r5 0.0
y10_r5 -0.0
y11_r5 1.4502288259166107e-15
SH2_r5 -0.0
SL2_r5 -0.0
y12_r5 0.0
y13_r5 1.0
y14_r5 -0.0
y15_r5 -0.0
SH3_r5 1.0
SL3_r5 0.0
y16_r5 -0.0
y17_r5 4.6074255521944e-15
y18_r5 -0.0
y19_r5 0.0
SH4_r5 7.91033905045424e-16
SL4_r5 -0.0
y20_r5 5.828670879282072e-16
y21_r5 0.0
y22_r5 -0.0
y23_r5 0.0
SH5_r5 -0.0
SL5_r5 -0.0
y24_r5 -0.0
y25_r5 -5.329070518200751e-15
y26_r5 -0.0
y27_r5 0.0
SH6_r5 -0.0
SL6_r5 -0.0
y28_r5 5.828670879282072e-16
y29_r5 -0.0
y30_r5 -0.0
y31_r5 -0.0
SH7_r5 1.096345236817342e-15
SL7_r5 -0.0
y32_r5 -1.3877787807814457e-17
y33_r5 0.0
y34_r5 0.0
y35_r5 -2.7755575615628914e-17
SH8_r5 -0.0
SL8_r5 -0.0
y36_r5 1.3877787807814457e-17
y37_r5 0.0
y38_r5 -0.0
y39_r5 0.0
SH9_r5 -0.0
SL9_r5 1.0842021724855044e-19
y40_r5 -3.885780586188048e-16
y41_r5 0.0
y42_r5 0.0
y43_r5 -9.71445146547012e-17
SH10_r5 -0.0
SL10_r5 -0.0
y44_r5 -0.0
y45_r5 -0.0
y46_r5 0.0
y47_r5 0.0
SH11_r5 -0.0
SL11_r5 0.0
y48_r5 3.0531133177191805e-16
y49_r5 1.0000000000000089
y50_r5 -4.413136522884997e-15
y51_r5 -3.316791286067655e-15
SH12_r5 0.9999999999999962
SL12_r5 -0.0
y52_r5 -0.0
y53_r5 0.0
y54_r5 -0.0
y55_r5 -0.0
SH13_r5 0.0
SL13_r5 -0.0
y56_r5 -0.0
y57_r5 -0.0
y58_r5 1.970645868709653e-15
y59_r5 -8.586881206085195e-17
SH14_r5 5.689893001203927e-16
SL14_r5 -0.0
y60_r5 -7.389922007661198e-16
y61_r5 1.0000000000000087
y62_r5 -4.218847493575595e-15
y63_r5 -3.316791286067655e-15
SH15_r5 1.0
SL15_r5 -4.9682480351975755e-15
y0_r6 -0.0
y1_r6 -0.0
y2_r6 -0.0
y3_r6 -0.0
SH0_r6 0.0
SL0_r6 -0.0
y4_r6 -0.0
y5_r6 -8.049116928532385e-16
y6_r6 -0.0
y7_r6 2.7755575615628914e-16
SH1_r6 -0.0
SL1_r6 -0.0
y8_r6 -0.0
y9_r6 -0.0
y10_r6 -0.0
y11_r6 -6.938893903907228e-18
SH2_r6 0.0
SL2_r6 -0.0
y12_r6 -0.0
y13_r6 -2.1094237467877974e-15
y14_r6 -0.0
y15_r6 -0.0
SH3_r6 -0.0
SL3_r6 -0.0
y16_r6 -0.0
y17_r6 1.0
y18_r6 0.0
y19_r6 0.0
SH4_r6 1.0
SL4_r6 -0.0
y20_r6 -0.0
y21_r6 -1.1854016032653014e-14
y22_r6 0.0
y23_r6 -0.0
SH5_r6 -0.0
SL5_r6 -0.0
y24_r6 -0.0
y25_r6 -0.0
y26_r6 0.0
y27_r6 -0.0
SH6_r6 -0.0
SL6_r6 -0.0
y28_r6 -3.885780586188048e-16
y29_r6 1.000000000000011
y30_r6 0.0
y31_r6 -3.3306690738754696e-16
SH7_r6 1.0000000000000089
SL7_r6 -0.0
y32_r6 -0.0
y33_r6 -0.0
y34_r6 -0.0
y35_r6 -0.0
SH8_r6 -0.0
SL8_r6 -0.0
y36_r6 -0.0
y37_r6 0.0
y38_r6 0.0
y39_r6 -0.0
SH9_r6 -0.0
SL9_r6 -0.0
y40_r6 -0.0
y41_r6 -0.0
y42_r6 0.0
y43_r6 -0.0
SH10_r6 0.0
SL10_r6 -0.0
y44_r6 -0.0
y45_r6 -4.246603069191224e-15
y46_r6 -0.0
y47_r6 -0.0
SH11_r6 -4.413136522884997e-15
SL11_r6 -0.0
y48_r6 0.0
y49_r6 1.4502288259166107e-15
y50_r6 0.0
y51_r6 -0.0
SH12_r6 0.0
SL12_r6 -0.0
y52_r6 -0.0
y53_r6 -0.0
y54_r6 -0.0
y55_r6 -0.0
SH13_r6 0.0
SL13_r6 -0.0
y56_r6 -0.0
y57_r6 -0.0
y58_r6 1.3877787807814457e-17
y59_r6 -0.0
SH14_r6 -0.0
SL14_r6 -0.0
y60_r6 -1.0304257447302234e-15
y61_r6 -5.578870698741412e-15
y62_r6 0.0
y63_r6 -2.96637714392034e-16
SH15_r6 -3.316791286067655e-15
SL15_r6 -0.0
y0_r7 -0.0
y1_r7 -0.0
y2_r7 -0.0
y3_r7 -0.0
SH0_r7 -0.0
SL0_r7 -0.0
y4_r7 -4.336808689942018e-18
y5_r7 -9.71445146547012e-17
y6_r7 -0.0
y7_r7 -0.0
SH1_r7 -6.938893903907228e-17
SL1_r7 -0.0
y8_r7 -0.0
y9_r7 -0.0
y10_r7 -0.0
y11_r7 -0.0
SH2_r7 -0.0
SL2_r7 -0.0
y12_r7 -3.165870343657673e-16
y13_r7 -7.945033519973776e-16
y14_r7 0.0
y15_r7 -2.7538735181131813e-16
SH3_r7 -2.749536709423239e-16
SL3_r7 -0.0
y16_r7 -0.0
y17_r7 -7.993605777301127e-15
y18_r7 0.0
y19_r7 -2.6645352591003757e-15
SH4_r7 -2.6645352591003757e-15
SL4_r7 -0.0
y20_r7 5.551115123125783e-17
y21_r7 0.9999999999999997
y22_r7 0.0
y23_r7 -2.220446049250313e-15
SH5_r7 1.0
SL5_r7 1.9280855124287344e-14
y24_r7 -0.0
y25_r7 -0.0
y26_r7 9.506284648352903e-16
y27_r7 -0.0
SH6_r7 -1.1796119636642288e-15
SL6_r7 -0.0
y28_r7 1.4432899320127035e-15
y29_r7 5.995204332975845e-15
y30_r7 -0.0
y31_r7 -1.609823385706477e-15
SH7_r7 -1.609823385706477e-15
SL7_r7 -1.4502288259166107e-15
y32_r7 -0.0
y33_r7 -0.0
y34_r7 -0.0
y35_r7 -0.0
SH8_r7 -0.0
SL8_r7 -0.0
y36_r7 -1.1102230246251565e-16
y37_r7 1.1102230246251565e-16
y38_r7 0.0
y39_r7 -0.0
SH9_r7 -0.0
SL9_r7 -0.0
y40_r7 -0.0
y41_r7 -5.551115123125783e-17
y42_r7 -0.0
y43_r7 -0.0
SH10_r7 0.0
SL10_r7 -0.0
y44_r7 5.551115123125783e-17
y45_r7 -0.0
y46_r7 -0.0
y47_r7 0.0
SH11_r7 -0.0
SL11_r7 -0.0
y48_r7 4.440892098500626e-16
y49_r7 -0.0
y50_r7 4.163336342344337e-17
y51_r7 -0.0
SH12_r7 6.938893903907228e-17
SL12_r7 -2.7755575615628914e-16
y52_r7 6.661338147750939e-16
y53_r7 -5.551115123125783e-16
y54_r7 5.551115123125783e-17
y55_r7 0.0
SH13_r7 0.0
SL13_r7 -0.0
y56_r7 -0.0
y57_r7 -0.0
y58_r7 -0.0
y59_r7 -0.0
SH14_r7 -0.0
SL14_r7 -0.0
y60_r7 -0.0
y61_r7 -1.8821749714348357e-16
y62_r7 -0.0
y63_r7 -0.0
SH15_r7 -7.41594285980085e-17
SL15_r7 -0.0
y0_r8 -0.0
y1_r8 1.8735013540549517e-16
y2_r8 -0.0
y3_r8 -0.0
SH0_r8 -0.0
SL0_r8 -0.0
y4_r8 -1.1102230246251565e-16
y5_r8 1.354472090042691e-14
y6_r8 -0.0
y7_r8 0.0
SH1_r8 -0.0
SL1_r8 -0.0
y8_r8 0.0
y9_r8 0.0
y10_r8 0.0
y11_r8 -0.0
SH2_r8 -0.0
SL2_r8 0.0
y12_r8 0.0
y13_r8 -0.0
y14_r8 -0.0
y15_r8 -0.0
SH3_r8 -0.0
SL3_r8 -0.0
y16_r8 -3.720981855970251e-16
y17_r8 4.884981308350689e-15
y18_r8 4.996003610813204e-16
y19_r8 -0.0
SH4_r8 0.0
SL4_r8 -0.0
y20_r8 -0.0
y21_r8 1.0
y22_r8 -5.773159728050814e-15
y23_r8 1.000000000000001
SH5_r8 0.9999999999999997
SL5_r8 -0.0
y24_r8 1.6653345369377348e-16
y25_r8 -0.0
y26_r8 -0.0
y27_r8 -0.0
SH6_r8 0.0
SL6_r8 -0.0
y28_r8 -0.0
y29_r8 8.43769498715119e-15
y30_r8 -0.0
y31_r8 -8.881784197001252e-16
SH7_r8 -1.1102230246251565e-16
SL7_r8 -0.0
y32_r8 -0.0
y33_r8 0.0
y34_r8 0.0
y35_r8 0.0
SH8_r8 0.0
SL8_r8 -0.0
y36_r8 -1.1102230246251565e-16
y37_r8 0.0
y38_r8 -0.0
y39_r8 0.0
SH9_r8 -0.0
SL9_r8 -0.0
y40_r8 5.551115123125783e-17
y41_r8 -0.0
y42_r8 0.0
y43_r8 -0.0
SH10_r8 -0.0
SL10_r8 -0.0
y44_r8 -5.551115123125783e-17
y45_r8 5.551115123125783e-17
y46_r8 -0.0
y47_r8 -0.0
SH11_r8 -0.0
SL11_r8 -0.0
y48_r8 0.0
y49_r8 -0.0
y50_r8 -1.194790794079026e-16
y51_r8 0.0
SH12_r8 -1.1600963245594897e-17
SL12_r8 -0.0
y52_r8 0.0
y53_r8 -7.771561172376096e-16
y54_r8 0.0
y55_r8 0.0
SH13_r8 -2.220446049250313e-15
SL13_r8 -0.0
y56_r8 0.0
y57_r8 -0.0
y58_r8 0.0
y59_r8 -0.0
SH14_r8 -0.0
SL14_r8 0.0
y60_r8 0.0
y61_r8 0.0
y62_r8 -0.0
y63_r8 -0.0
SH15_r8 -0.0
SL15_r8 -0.0
y0_r9 -0.0
y1_r9 -0.0
y2_r9 -0.0
y3_r9 3.191891195797325e-16
SH0_r9 -1.1102230246251565e-16
SL0_r9 -0.0
y4_r9 1.1232334506949826e-16
y5_r9 -2.5738959574805875e-16
y6_r9 1.936385080059111e-16
y7_r9 1.0408340855860843e-17
SH1_r9 0.0
SL1_r9 -0.0
y8_r9 0.0
y9_r9 -0.0
y10_r9 -0.0
y11_r9 -0.0
SH2_r9 0.0
SL2_r9 -0.0
y12_r9 -0.0
y13_r9 -0.0
y14_r9 -0.0
y15_r9 -0.0
SH3_r9 -0.0
SL3_r9 0.0
y16_r9 -0.0
y17_r9 3.497202527569243e-15
y18_r9 6.106226635438361e-15
y19_r9 -0.0
SH4_r9 3.6637359812630166e-15
SL4_r9 -0.0
y20_r9 -0.0
y21_r9 1.0
y22_r9 1.0
y23_r9 -1.2989609388114332e-14
SH5_r9 1.0
SL5_r9 1.0
y24_r9 0.0
y25_r9 -0.0
y26_r9 -0.0
y27_r9 -0.0
SH6_r9 2.7755575615628914e-17
SL6_r9 -0.0
y28_r9 -0.0
y29_r9 -7.771561172376096e-16
y30_r9 -0.0
y31_r9 -7.494005416219807e-16
SH7_r9 -7.771561172376096e-16
SL7_r9 -0.0
y32_r9 -0.0
y33_r9 0.0
y34_r9 -0.0
y35_r9 -0.0
SH8_r9 0.0
SL8_r9 -0.0
y36_r9 -4.996003610813204e-16
y37_r9 -0.0
y38_r9 -0.0
y39_r9 -0.0
SH9_r9 -1.6653345369377348e-15
SL9_r9 -0.0
y40_r9 0.0
y41_r9 -0.0
y42_r9 -0.0
y43_r9 -0.0
SH10_r9 0.0
SL10_r9 -0.0
y44_r9 -1.194790794079026e-16
y45_r9 -1.0191500421363742e-16
y46_r9 -0.0
y47_r9 -0.0
SH11_r9 0.0
SL11_r9 -0.0
y48_r9 0.0
y49_r9 -0.0
y50_r9 0.0
y51_r9 -0.0
SH12_r9 -0.0
SL12_r9 -0.0
y52_r9 -0.0
y53_r9 1.0
y54_r9 1.0
y55_r9 -0.0
SH13_r9 1.0
SL13_r9 1.000000000000001
y56_r9 0.0
y57_r9 -0.0
y58_r9 -0.0
y59_r9 -0.0
SH14_r9 -0.0
SL14_r9 -0.0
y60_r9 0.0
y61_r9 0.0
y62_r9 -0.0
y63_r9 -0.0
SH15_r9 -0.0
SL15_r9 -0.0
